c CNF file corresponding to a (partial) station packing problem.
p cnf 5268 229
1 2 3 4 5 6 7 8 9 10 11 12 13 14 0
-1 -2 0
-1 -3 0
-1 -4 0
-1 -5 0
-1 -6 0
-1 -7 0
-1 -8 0
-1 -9 0
-1 -10 0
-1 -11 0
-1 -12 0
-1 -13 0
-1 -14 0
-2 -3 0
-2 -4 0
-2 -5 0
-2 -6 0
-2 -7 0
-2 -8 0
-2 -9 0
-2 -10 0
-2 -11 0
-2 -12 0
-2 -13 0
-2 -14 0
-3 -4 0
-3 -5 0
-3 -6 0
-3 -7 0
-3 -8 0
-3 -9 0
-3 -10 0
-3 -11 0
-3 -12 0
-3 -13 0
-3 -14 0
-4 -5 0
-4 -6 0
-4 -7 0
-4 -8 0
-4 -9 0
-4 -10 0
-4 -11 0
-4 -12 0
-4 -13 0
-4 -14 0
-5 -6 0
-5 -7 0
-5 -8 0
-5 -9 0
-5 -10 0
-5 -11 0
-5 -12 0
-5 -13 0
-5 -14 0
-6 -7 0
-6 -8 0
-6 -9 0
-6 -10 0
-6 -11 0
-6 -12 0
-6 -13 0
-6 -14 0
-7 -8 0
-7 -9 0
-7 -10 0
-7 -11 0
-7 -12 0
-7 -13 0
-7 -14 0
-8 -9 0
-8 -10 0
-8 -11 0
-8 -12 0
-8 -13 0
-8 -14 0
-9 -10 0
-9 -11 0
-9 -12 0
-9 -13 0
-9 -14 0
-10 -11 0
-10 -12 0
-10 -13 0
-10 -14 0
-11 -12 0
-11 -13 0
-11 -14 0
-12 -13 0
-12 -14 0
-13 -14 0
5252 5253 5254 5255 5256 5257 5258 5259 5260 5261 5262 5263 5264 5265 5266 5267 5268 0
-5252 -5253 0
-5252 -5254 0
-5252 -5255 0
-5252 -5256 0
-5252 -5257 0
-5252 -5258 0
-5252 -5259 0
-5252 -5260 0
-5252 -5261 0
-5252 -5262 0
-5252 -5263 0
-5252 -5264 0
-5252 -5265 0
-5252 -5266 0
-5252 -5267 0
-5252 -5268 0
-5253 -5254 0
-5253 -5255 0
-5253 -5256 0
-5253 -5257 0
-5253 -5258 0
-5253 -5259 0
-5253 -5260 0
-5253 -5261 0
-5253 -5262 0
-5253 -5263 0
-5253 -5264 0
-5253 -5265 0
-5253 -5266 0
-5253 -5267 0
-5253 -5268 0
-5254 -5255 0
-5254 -5256 0
-5254 -5257 0
-5254 -5258 0
-5254 -5259 0
-5254 -5260 0
-5254 -5261 0
-5254 -5262 0
-5254 -5263 0
-5254 -5264 0
-5254 -5265 0
-5254 -5266 0
-5254 -5267 0
-5254 -5268 0
-5255 -5256 0
-5255 -5257 0
-5255 -5258 0
-5255 -5259 0
-5255 -5260 0
-5255 -5261 0
-5255 -5262 0
-5255 -5263 0
-5255 -5264 0
-5255 -5265 0
-5255 -5266 0
-5255 -5267 0
-5255 -5268 0
-5256 -5257 0
-5256 -5258 0
-5256 -5259 0
-5256 -5260 0
-5256 -5261 0
-5256 -5262 0
-5256 -5263 0
-5256 -5264 0
-5256 -5265 0
-5256 -5266 0
-5256 -5267 0
-5256 -5268 0
-5257 -5258 0
-5257 -5259 0
-5257 -5260 0
-5257 -5261 0
-5257 -5262 0
-5257 -5263 0
-5257 -5264 0
-5257 -5265 0
-5257 -5266 0
-5257 -5267 0
-5257 -5268 0
-5258 -5259 0
-5258 -5260 0
-5258 -5261 0
-5258 -5262 0
-5258 -5263 0
-5258 -5264 0
-5258 -5265 0
-5258 -5266 0
-5258 -5267 0
-5258 -5268 0
-5259 -5260 0
-5259 -5261 0
-5259 -5262 0
-5259 -5263 0
-5259 -5264 0
-5259 -5265 0
-5259 -5266 0
-5259 -5267 0
-5259 -5268 0
-5260 -5261 0
-5260 -5262 0
-5260 -5263 0
-5260 -5264 0
-5260 -5265 0
-5260 -5266 0
-5260 -5267 0
-5260 -5268 0
-5261 -5262 0
-5261 -5263 0
-5261 -5264 0
-5261 -5265 0
-5261 -5266 0
-5261 -5267 0
-5261 -5268 0
-5262 -5263 0
-5262 -5264 0
-5262 -5265 0
-5262 -5266 0
-5262 -5267 0
-5262 -5268 0
-5263 -5264 0
-5263 -5265 0
-5263 -5266 0
-5263 -5267 0
-5263 -5268 0
-5264 -5265 0
-5264 -5266 0
-5264 -5267 0
-5264 -5268 0
-5265 -5266 0
-5265 -5267 0
-5265 -5268 0
-5266 -5267 0
-5266 -5268 0
-5267 -5268 0
